
  32    4
  10   10   10   10

   0   0   0   0   0   3 2 3 12 
   1   0   1   1   1   2 14 4 
   4   0   4   4   6   2 14 4 
   6   1   0   2   3   2 8 5 
   7   0   1   7   5   2 11 6 
   2   2   4   0   9   2 21 7 
   6   2   3   4   0   2 19 9 
   1   4   3   6   0   2 11 10 
   5   5   0   4   3   1 10 
   8   2   3   2   0   3 26 18 13 
   7   0   3   2   1   3 26 18 13 
   5   1   0   2   2   4 23 21 18 16 
   5   5   7   3   0   2 23 15 
   1   5   0   6   6   2 21 17 
   9   7   5   0   6   1 16 
   8   4   7   5   0   1 17 
   8   4   5   4   0   2 31 20 
   7   3   3   4   0   2 31 20 
   4   4   4   0   7   2 31 20 
   8   3   0   9   4   2 25 22 
   5   3   1   3   0   2 25 22 
   9   6   5   0   3   4 30 29 28 24 
   2   5   3   5   0   1 24 
  10   2   8   0   4   1 27 
   2   7   0   2   6   1 28 
   5   6   4   0   3   1 31 
   5   5   4   4   0   1 32
   6   0   4   6   2   1 32
   5   0   6   2   1   1 32
   6   0   2   5   4   1 32
   2   6   6   4   0   1 32
   0   0   0   0   0   0 
